(set-info :smt-lib-version 2.6)
(set-logic UFLIA)
(set-info :source |
Generated by: Geoff Sutcliffe
Generated on: 2026-03-11
Generator: TPTPWorld
Application: Benchmarking automated theorem provers
Time limit: 120.0

These benchmarks are translations from the TPTP Library (Thousands of
Problems for Theorem Provers), see http://www.cs.miami.edu/~tptp/

The TPTP is maintained by Geoff Sutcliffe, and he contributed this
selection of benchmarks to SMT-LIB.  They were exported from the
v9.2.1 realease of TPTP.
|)
(set-info :category "industrial")
(set-info :status unknown)
; SZS status Success
(declare-sort $$unsorted 0)

(declare-sort tptp.general 0)
(declare-sort tptp.symbol 0)
(declare-fun tptp.f__integer__ (Int) tptp.general)
(declare-fun tptp.f__symbolic__ (tptp.symbol) tptp.general)
(declare-fun tptp.c__infimum__ () tptp.general)
(declare-fun tptp.c__supremum__ () tptp.general)
(declare-fun tptp.p__is_integer__ (tptp.general) Bool)
(declare-fun tptp.p__is_symbolic__ (tptp.general) Bool)
(declare-fun tptp.p__less_equal__ (tptp.general tptp.general) Bool)
(declare-fun tptp.p__less__ (tptp.general tptp.general) Bool)
(declare-fun tptp.p__greater_equal__ (tptp.general tptp.general) Bool)
(declare-fun tptp.p__greater__ (tptp.general tptp.general) Bool)
(assert (forall ((X tptp.general)) (= (tptp.p__is_integer__ X) (exists ((N Int)) (= X (tptp.f__integer__ N))))))
(assert (forall ((X1 tptp.general)) (= (tptp.p__is_symbolic__ X1) (exists ((X2 tptp.symbol)) (= X1 (tptp.f__symbolic__ X2))))))
(assert (forall ((X tptp.general)) (or (= X tptp.c__infimum__) (tptp.p__is_integer__ X) (tptp.p__is_symbolic__ X) (= X tptp.c__supremum__))))
(assert (forall ((N1 Int) (N2 Int)) (= (= (tptp.f__integer__ N1) (tptp.f__integer__ N2)) (= N1 N2))))
(assert (forall ((S1 tptp.symbol) (S2 tptp.symbol)) (= (= (tptp.f__symbolic__ S1) (tptp.f__symbolic__ S2)) (= S1 S2))))
(assert (forall ((N1 Int) (N2 Int)) (= (tptp.p__less_equal__ (tptp.f__integer__ N1) (tptp.f__integer__ N2)) (<= N1 N2))))
(assert (forall ((X1 tptp.general) (X2 tptp.general)) (=> (and (tptp.p__less_equal__ X1 X2) (tptp.p__less_equal__ X2 X1)) (= X1 X2))))
(assert (forall ((X1 tptp.general) (X2 tptp.general) (X3 tptp.general)) (=> (and (tptp.p__less_equal__ X1 X2) (tptp.p__less_equal__ X2 X3)) (tptp.p__less_equal__ X1 X3))))
(assert (forall ((X1 tptp.general) (X2 tptp.general)) (or (tptp.p__less_equal__ X1 X2) (tptp.p__less_equal__ X2 X1))))
(assert (forall ((X1 tptp.general) (X2 tptp.general)) (= (tptp.p__less__ X1 X2) (and (tptp.p__less_equal__ X1 X2) (not (= X1 X2))))))
(assert (forall ((X1 tptp.general) (X2 tptp.general)) (= (tptp.p__greater_equal__ X1 X2) (tptp.p__less_equal__ X2 X1))))
(assert (forall ((X1 tptp.general) (X2 tptp.general)) (= (tptp.p__greater__ X1 X2) (and (tptp.p__less_equal__ X2 X1) (not (= X1 X2))))))
(assert (forall ((N Int)) (tptp.p__less__ tptp.c__infimum__ (tptp.f__integer__ N))))
(assert (forall ((N Int) (S tptp.symbol)) (tptp.p__less__ (tptp.f__integer__ N) (tptp.f__symbolic__ S))))
(assert (forall ((S tptp.symbol)) (tptp.p__less__ (tptp.f__symbolic__ S) tptp.c__supremum__)))
(declare-fun tptp.hq (tptp.general tptp.general) Bool)
(declare-fun tptp.tq (tptp.general tptp.general) Bool)
(declare-fun tptp.hp (tptp.general) Bool)
(declare-fun tptp.tp (tptp.general) Bool)
(assert (forall ((X1_g tptp.general) (X2_g tptp.general)) (=> (tptp.hq X1_g X2_g) (tptp.tq X1_g X2_g))))
(assert (forall ((X1_g tptp.general)) (=> (tptp.hp X1_g) (tptp.tp X1_g))))
(assert (forall ((V1_g tptp.general) (V2_g tptp.general) (X_g tptp.general) (Y_g tptp.general)) (let ((_let_1 (tptp.tq V1_g V2_g))) (let ((_let_2 (not (not _let_1)))) (let ((_let_3 (= V2_g Y_g))) (let ((_let_4 (= V1_g X_g))) (and (=> (and _let_4 _let_3 (exists ((Z_g tptp.general)) (and (= Z_g X_g) (tptp.hp Z_g))) (exists ((Z_g tptp.general)) (and (= Z_g Y_g) (tptp.hp Z_g))) _let_2) (tptp.hq V1_g V2_g)) (=> (and _let_4 _let_3 (exists ((Z_g tptp.general)) (and (= Z_g X_g) (tptp.tp Z_g))) (exists ((Z_g tptp.general)) (and (= Z_g Y_g) (tptp.tp Z_g))) _let_2) _let_1))))))))
(assert (forall ((X_g tptp.general) (Y_g tptp.general) (Z_g tptp.general)) (and (=> (and (exists ((Z_g tptp.general) (Z1_g tptp.general)) (and (= Z_g X_g) (= Z1_g Y_g) (tptp.hq Z_g Z1_g))) (exists ((Z1_g tptp.general) (Z2_g tptp.general)) (and (= Z1_g Y_g) (= Z2_g Z_g) (tptp.hq Z1_g Z2_g))) (exists ((Z1_g tptp.general) (Z2_g tptp.general)) (and (= Z1_g X_g) (= Z2_g Z_g) (not (tptp.tq Z1_g Z2_g)))) (exists ((Z_g tptp.general)) (and (= Z_g X_g) (tptp.hp Z_g))) (exists ((Z_g tptp.general)) (and (= Z_g Y_g) (tptp.hp Z_g))) (exists ((Z1_g tptp.general)) (and (= Z1_g Z_g) (tptp.hp Z1_g)))) false) (=> (and (exists ((Z_g tptp.general) (Z1_g tptp.general)) (and (= Z_g X_g) (= Z1_g Y_g) (tptp.tq Z_g Z1_g))) (exists ((Z1_g tptp.general) (Z2_g tptp.general)) (and (= Z1_g Y_g) (= Z2_g Z_g) (tptp.tq Z1_g Z2_g))) (exists ((Z1_g tptp.general) (Z2_g tptp.general)) (and (= Z1_g X_g) (= Z2_g Z_g) (not (tptp.tq Z1_g Z2_g)))) (exists ((Z_g tptp.general)) (and (= Z_g X_g) (tptp.tp Z_g))) (exists ((Z_g tptp.general)) (and (= Z_g Y_g) (tptp.tp Z_g))) (exists ((Z1_g tptp.general)) (and (= Z1_g Z_g) (tptp.tp Z1_g)))) false))))
(assert (not (forall ((V1_g tptp.general) (V2_g tptp.general) (X_g tptp.general) (Y_g tptp.general)) (let ((_let_1 (tptp.tq V1_g V2_g))) (let ((_let_2 (not (not _let_1)))) (let ((_let_3 (= V2_g Y_g))) (let ((_let_4 (= V1_g X_g))) (and (=> (and _let_4 _let_3 (exists ((Z_g tptp.general)) (and (= Z_g X_g) (tptp.hp Z_g))) (exists ((Z_g tptp.general)) (and (= Z_g Y_g) (tptp.hp Z_g))) _let_2) (tptp.hq V1_g V2_g)) (=> (and _let_4 _let_3 (exists ((Z_g tptp.general)) (and (= Z_g X_g) (tptp.tp Z_g))) (exists ((Z_g tptp.general)) (and (= Z_g Y_g) (tptp.tp Z_g))) _let_2) _let_1)))))))))
(check-sat)
(exit)
